120 150
1 97 4 6 9 10 20 23 28 32 37 43 55 59 65 66 67 86 99 101 113 117
2 57
3 81
4 62 5 6 7 9 10 11 12 13 14 15 17 18 19 20 21 23 24 25 26 27 28 29 30 31 32 35 36 37 38 39 40 42 43 46 47 52 53 55 56 58 59 60 62 63 64 65 66 67 68 69 70 71 72 73 74 75 76 77 78 79 80 82 84 86 87 90 94 97 98 99 100 101 102 103 105 107 108 109 110 111 112 113 114 115 116 117 118 119
5 75 6 9 10 13 14 20 23 24 28 32 37 43 47 55 56 59 65 66 67 70 86 94 99 101 105 113 115 117 119
6 81 7 9 10 11 12 13 14 15 17 18 19 20 21 23 24 25 26 27 28 29 30 31 32 35 36 37 38 39 40 42 43 46 47 49 52 53 55 56 58 59 60 62 63 64 65 66 67 68 69 70 71 72 73 74 75 76 77 78 79 80 82 84 86 87 90 94 97 98 99 100 101 102 103 104 105 107 108 109 110 111 112 113 114 115 116 117 118 119
7 23 9 10 12 13 14 17 18 20 21 23 24 28 30 32 37 43 47 53 55 56 59 62 63 65 66 67 69 70 73 76 78 79 86 94 98 99 101 105 108 111 113 115 116 117 118 119
8 43
9 50 10 11 12 13 14 15 16 17 18 19 20 21 23 24 25 26 27 28 29 30 31 32 35 36 37 38 39 40 42 43 46 47 49 51 52 53 55 56 58 59 60 61 62 63 64 65 66 67 68 69 70 71 72 73 74 75 76 77 78 79 80 82 84 85 86 87 90 94 97 98 99 100 101 102 103 104 105 106 107 108 109 110 111 112 113 114 115 116 117 118 119
10 38 11 12 13 14 15 17 18 19 20 21 23 24 25 26 27 28 30 31 32 35 36 37 38 40 42 43 46 47 52 53 55 56 58 59 60 62 63 64 65 66 67 68 69 70 71 72 73 74 75 76 77 78 79 80 84 86 87 90 94 97 98 99 100 101 102 103 105 107 108 109 111 112 113 114 115 116 117 118 119
11 60 13 14 20 23 24 28 32 37 43 47 55 56 59 65 66 67 70 79 86 94 99 101 105 108 113 115 117 119
12 58 13 14 17 18 20 21 23 24 25 26 28 30 32 37 43 47 52 53 55 56 59 62 63 64 65 66 67 69 70 73 76 78 79 86 94 97 98 99 101 105 108 109 111 113 115 116 117 118 119
13 70 14 15 17 18 20 21 23 24 25 26 27 28 30 31 32 35 36 37 40 43 46 47 52 53 55 56 58 59 60 62 63 64 65 66 67 68 69 70 71 72 73 74 75 76 77 78 79 80 86 87 94 97 98 99 100 101 102 103 105 107 108 109 111 112 113 114 115 116 117 118 119
14 88 15 17 18 19 20 21 23 24 25 26 27 28 30 31 32 35 36 37 38 40 42 43 46 47 52 53 55 56 58 59 60 62 63 64 65 66 67 68 69 70 71 72 73 74 75 76 77 78 79 80 84 86 87 94 97 98 99 100 101 102 103 105 107 108 109 111 112 113 114 115 116 117 118 119
15 36 17 18 20 23 24 28 30 32 37 43 47 55 56 59 62 63 65 66 67 69 70 73 78 79 86 94 98 99 101 105 108 113 115 117 119
16 90 20 28 37 43 86 101 113
17 37 18 20 21 23 24 25 26 28 30 31 32 36 37 40 43 46 47 52 53 55 56 58 59 60 62 63 64 65 66 67 68 69 70 71 72 73 74 75 76 78 79 80 86 94 97 98 99 101 102 105 107 108 109 111 113 114 115 116 117 118 119
18 45 20 21 23 24 25 26 28 30 31 32 36 37 40 43 46 47 52 53 55 56 58 59 60 62 63 64 65 66 67 68 69 70 72 73 74 75 76 78 79 80 86 94 97 98 99 101 102 105 107 108 109 111 113 114 115 116 117 118 119
19 45 20 23 24 28 32 37 43 47 55 59 65 66 67 86 99 101 113 115 117
20 39 21 23 24 25 26 27 28 29 30 31 32 35 36 37 38 39 40 42 43 46 47 49 52 53 55 56 58 59 60 62 63 64 65 66 67 68 69 70 71 72 73 74 75 76 77 78 79 80 82 84 86 87 90 94 97 98 99 100 101 102 103 104 105 107 108 109 110 111 112 113 114 115 116 117 118 119
21 44 23 24 25 26 28 30 32 37 43 47 52 53 55 56 59 62 63 64 65 66 67 69 70 73 76 78 79 86 94 97 98 99 101 105 108 109 111 113 115 116 117 118 119
22 53
23 70 24 25 26 27 28 29 30 31 32 35 36 37 38 40 42 43 46 47 52 53 55 56 58 59 60 62 63 64 65 66 67 68 69 70 71 72 73 74 75 76 77 78 79 80 84 86 87 90 94 97 98 99 100 101 102 103 105 107 108 109 110 111 112 113 114 115 116 117 118 119
24 24 25 26 27 28 30 31 32 35 36 37 40 43 46 47 52 53 55 56 58 59 60 62 63 64 65 66 67 68 69 70 71 72 73 74 75 76 77 78 79 80 86 87 94 97 98 99 100 101 102 103 105 107 108 109 111 112 113 114 115 116 117 118 119
25 82 28 30 32 37 43 47 53 55 56 59 62 63 65 66 67 69 70 73 76 78 79 86 94 98 99 101 105 108 111 113 115 116 117 118 119
26 81 28 30 32 37 43 47 53 55 56 59 62 63 65 66 67 69 70 73 76 78 79 86 94 98 99 101 105 108 111 113 115 116 117 118 119
27 47 28 32 37 43 47 55 56 59 65 66 67 70 86 94 99 101 113 115 117 119
28 97 29 30 31 32 35 36 37 38 39 40 42 43 46 47 49 51 52 53 55 56 58 59 60 61 62 63 64 65 66 67 68 69 70 71 72 73 74 75 76 77 78 79 80 82 84 85 86 87 90 94 97 98 99 100 101 102 103 104 105 106 107 108 109 110 111 112 113 114 115 116 117 118 119
29 35 32 37 43 59 66 86 99 101 113 117
30 65 31 32 36 37 40 43 46 47 52 53 55 56 58 59 60 62 63 64 65 66 67 68 69 70 71 72 73 74 75 76 78 79 80 86 94 97 98 99 101 102 103 105 107 108 109 111 113 114 115 116 117 118 119
31 74 32 37 43 47 55 56 59 62 65 66 67 69 70 73 78 79 86 94 98 99 101 105 108 113 115 117 119
32 68 35 36 37 38 40 42 43 46 47 52 53 55 56 58 59 60 62 63 64 65 66 67 68 69 70 71 72 73 74 75 76 77 78 79 80 84 86 87 90 94 97 98 99 100 101 102 103 105 107 108 109 110 111 112 113 114 115 116 117 118 119
33 49
34 55
35 52 37 43 47 55 56 59 65 66 67 70 86 94 99 101 105 113 115 117 119
36 94 37 43 47 55 56 59 62 63 65 66 67 69 70 73 76 78 79 86 94 98 99 101 105 108 113 115 116 117 118 119
37 95 38 39 40 42 43 46 47 49 51 52 53 55 56 58 59 60 61 62 63 64 65 66 67 68 69 70 71 72 73 74 75 76 77 78 79 80 82 84 85 86 87 90 94 97 98 99 100 101 102 103 104 105 106 107 108 109 110 111 112 113 114 115 116 117 118 119
38 29 43 55 59 65 66 67 86 99 101 113 117
39 99 43 86 99 101 113
40 20 43 47 55 56 59 62 63 65 66 67 69 70 73 76 78 79 86 94 98 99 101 105 108 113 115 116 117 118 119
41 22
42 25 43 55 59 65 66 67 86 99 101 113 117
43 49 46 47 49 51 52 53 55 56 58 59 60 61 62 63 64 65 66 67 68 69 70 71 72 73 74 75 76 77 78 79 80 82 84 85 86 87 90 94 97 98 99 100 101 102 103 104 105 107 108 109 110 111 112 113 114 115 116 117 118 119
44 46
45 98
46 59 47 55 56 59 62 63 65 66 67 69 70 73 78 79 86 94 98 99 101 105 108 113 115 116 117 118 119
47 98 52 53 55 56 58 59 60 62 63 64 65 66 67 68 69 70 71 72 73 74 75 76 77 78 79 80 86 87 94 97 98 99 100 101 102 103 105 107 108 109 111 112 113 114 115 116 117 118 119
48 60
49 23 86 99 101 113
50 72
51 33 86 113
52 98 53 55 56 59 62 63 65 66 67 69 70 73 76 78 79 86 94 98 99 101 105 108 111 113 115 116 117 118 119
53 80 55 56 59 62 63 64 65 66 67 68 69 70 73 76 78 79 86 94 97 98 99 101 105 108 109 111 113 115 116 117 118 119
54 95
55 78 56 58 59 60 62 63 64 65 66 67 68 69 70 71 72 73 74 75 76 77 78 79 80 84 86 87 94 97 98 99 100 101 102 103 105 107 108 109 111 112 113 114 115 116 117 118 119
56 57 58 59 60 62 63 64 65 66 67 68 69 70 71 72 73 74 75 76 77 78 79 80 86 87 94 97 98 99 100 101 102 103 105 107 108 109 111 112 113 114 115 116 117 118 119
57 67
58 53 59 62 63 65 66 67 69 70 73 78 79 86 94 98 99 101 105 108 113 115 117 119
59 47 60 62 63 64 65 66 67 68 69 70 71 72 73 74 75 76 77 78 79 80 84 86 87 90 94 97 98 99 100 101 102 103 105 107 108 109 110 111 112 113 114 115 116 117 118 119
60 53 62 63 65 66 67 69 70 73 78 79 86 94 98 99 101 105 108 113 115 116 117 118 119
61 36 86 113
62 38 63 64 65 66 67 68 69 70 71 72 73 74 75 76 78 79 80 86 94 97 98 99 101 102 103 105 107 108 109 111 113 114 115 116 117 118 119
63 92 64 65 66 67 68 69 70 72 73 76 78 79 80 86 94 97 98 99 101 102 105 107 108 109 111 113 114 115 116 117 118 119
64 30 65 66 67 69 70 73 76 78 79 86 94 98 99 101 105 108 111 113 115 116 117 118 119
65 80 66 67 68 69 70 71 72 73 74 75 76 77 78 79 80 84 86 87 94 97 98 99 100 101 102 103 105 107 108 109 111 112 113 114 115 116 117 118 119
66 32 67 68 69 70 71 72 73 74 75 76 77 78 79 80 84 86 87 90 94 97 98 99 100 101 102 103 105 107 108 109 110 111 112 113 114 115 116 117 118 119
67 97 68 69 70 71 72 73 74 75 76 77 78 79 80 84 86 87 90 94 97 98 99 100 101 102 103 105 107 108 109 111 112 113 114 115 116 117 118 119
68 39 69 70 73 76 78 79 86 94 98 99 101 105 108 113 115 116 117 118 119
69 80 70 71 72 73 74 75 76 78 79 80 86 94 97 98 99 101 102 105 107 108 109 111 113 114 115 116 117 118 119
70 72 71 72 73 74 75 76 77 78 79 80 86 94 97 98 99 100 101 102 103 105 107 108 109 111 112 113 114 115 116 117 118 119
71 55 73 78 79 86 94 98 99 101 105 108 113 115 117 119
72 41 73 78 79 86 94 98 99 101 105 108 113 115 116 117 118 119
73 60 74 75 76 78 79 80 86 94 97 98 99 101 102 103 105 107 108 109 111 113 114 115 116 117 118 119
74 67 78 79 86 94 98 99 101 105 108 113 115 117 119
75 53 78 79 86 94 98 99 101 105 108 113 115 117 119
76 65 78 79 86 94 97 98 99 101 102 105 108 109 111 113 115 116 117 118 119
77 95 86 94 99 101 113 115 117 119
78 20 79 80 86 94 97 98 99 101 102 103 105 107 108 109 111 113 114 115 116 117 118 119
79 66 80 86 94 97 98 99 100 101 102 103 105 107 108 109 111 113 114 115 116 117 118 119
80 78 86 94 98 99 101 105 108 113 115 117 119
81 98
82 47 86 99 101 113
83 100
84 85 86 99 101 113 117
85 53 86 113
86 53 87 90 94 97 98 99 100 101 102 103 104 105 107 108 109 110 111 112 113 114 115 116 117 118 119
87 67 94 99 101 113 115 117 119
88 27
89 22
90 61 99 101 113 117
91 43
92 52
93 76
94 64 97 98 99 100 101 102 103 105 107 108 109 111 112 113 114 115 116 117 118 119
95 61
96 29
97 30 98 99 101 105 108 111 113 115 116 117 118 119
98 46 99 101 102 105 107 108 109 111 113 114 115 116 117 118 119
99 79 100 101 102 103 104 105 107 108 109 110 111 112 113 114 115 116 117 118 119
100 66 101 105 108 113 115 117 119
101 27 102 103 104 105 107 108 109 110 111 112 113 114 115 116 117 118 119
102 79 105 108 113 115 116 117 118 119
103 98 105 108 113 115 117 119
104 90 113
105 22 107 108 109 111 113 114 115 116 117 118 119
106 75 113
107 57 108 113 115 116 117 118 119
108 67 109 111 113 114 115 116 117 118 119
109 36 111 113 115 116 117 118 119
110 70 113
111 99 113 115 116 117 118 119
112 48 113 115 117 119
113 43 114 115 116 117 118 119
114 45 115 116 117 118 119
115 71 116 117 118 119
116 100 117 118 119
117 88 118 119
118 48 119
119 27
120 39
